SPARKNaCl/why3-cvc5/sparknacl-core.adb_370_23_range_check4_1.smt2
;; produced by cvc5.drv ;;
(set-logic ALL)
(set-info :smt-lib-version 2.6)
;;; generated by SMT-LIB2 driver
;;; SMT-LIB2 driver: bit-vectors, common part
;;; SMT-LIB2: integer arithmetic
;; "pow2"
(declare-fun pow2 (Int) Int)

(declare-const two_power_size_minus_one Int)

;; "two_power_size_minus_one_val"
(assert (= two_power_size_minus_one (pow2 (- 8 1))))

;; "min"
(define-fun min ((x Int) (y Int)) Int
  (ite (<= x y) x y))

;; "max"
(define-fun max ((x Int) (y Int)) Int
  (ite (<= x y) y x))

;; "Min_r"
(assert (forall ((x Int) (y Int)) (=> (<= y x) (= (min x y) y))))

;; "Max_l"
(assert (forall ((x Int) (y Int)) (=> (<= y x) (= (max x y) x))))

;; "Min_comm"
(assert (forall ((x Int) (y Int)) (= (min x y) (min y x))))

;; "Max_comm"
(assert (forall ((x Int) (y Int)) (= (max x y) (max y x))))

;; "Min_assoc"
(assert
  (forall ((x Int) (y Int) (z Int)) (= (min (min x y) z) (min x (min y z)))))

;; "Max_assoc"
(assert
  (forall ((x Int) (y Int) (z Int)) (= (max (max x y) z) (max x (max y z)))))

(declare-const two_power_size_minus_one1 Int)

;; "two_power_size_minus_one_val"
(assert (= two_power_size_minus_one1 (pow2 (- 32 1))))

(declare-sort byte 0)

;; "to_rep"
(declare-fun to_rep (byte) (_ BitVec 8))

;; "of_rep"
(declare-fun of_rep ((_ BitVec 8)) byte)

;; "inversion_axiom"
(assert
  (forall ((x byte)) (! (= (of_rep (to_rep x)) x) :pattern ((to_rep x)) )))

;; "range_axiom"
(assert true)

;; "coerce_axiom"
(assert
  (forall ((x (_ BitVec 8)))
    (! (= (to_rep (of_rep x)) x) :pattern ((to_rep (of_rep x))) )))

(declare-sort map1 0)

;; "has_bounds"
(declare-fun has_bounds (map1
  Int
  Int) Bool)

;; "get"
(declare-fun get (map1
  Int) byte)

;; "slide"
(declare-fun slide (map1
  Int
  Int) map1)

;; "slide_eq"
(assert
  (forall ((a map1) (first Int))
    (! (= (slide a first first) a) :pattern ((slide a first first)) )))

;; "slide_def"
(assert
  (forall ((a map1) (old_first Int) (new_first Int))
    (! (and
         (forall ((i Int))
           (! (= (get (slide a old_first new_first) i) (get
                                                         a
                                                         (- i (- new_first old_first)))) :pattern (
           (get
             (slide a old_first new_first)
             i)) ))
         (forall ((new_last Int))
           (! (=>
                (has_bounds a old_first (- new_last (- new_first old_first)))
                (has_bounds (slide a old_first new_first) new_first new_last)) :pattern (
           (has_bounds
             (slide a old_first new_first)
             new_first
             new_last)) ))) :pattern ((slide a old_first new_first)) )))

;; "slice"
(declare-fun slice (map1
  Int
  Int) map1)

;; "slice_eq"
(assert
  (forall ((a map1) (f Int) (l Int))
    (! (=> (has_bounds a f l) (= (slice a f l) a)) :pattern ((slice a f l)
    (has_bounds a f l)) )))

;; "slice_slice"
(assert
  (forall ((a map1) (f1 Int) (l1 Int) (f2 Int) (l2 Int))
    (! (=>
         (and (<= f1 f2) (<= l2 l1))
         (= (slice (slice a f1 l1) f2 l2) (slice a f2 l2))) :pattern (
    (slice
      (slice a f1 l1)
      f2
      l2)) )))

;; "slice_def"
(assert
  (forall ((a map1) (f Int) (l Int))
    (! (forall ((i Int))
         (! (=> (and (<= f i) (<= i l)) (= (get (slice a f l) i) (get a i))) :pattern (
         (get
           (slice a f l)
           i)) :pattern ((get a i)) )) :pattern ((slice a f l)) )))

;; "slice_has_bounds"
(assert
  (forall ((a map1) (f Int) (l Int))
    (! (has_bounds (slice a f l) f l) :pattern ((has_bounds
                                                  (slice a f l)
                                                  f
                                                  l)) )))

(declare-datatypes ((us_split_fields 0))
  (((us_split_fieldsqtmk (rec__ada___sparknacl__core__chacha20_key__f map1)))))

(declare-datatypes ((us_rep 0))
  (((us_repqtmk (us_split_fields1 us_split_fields)))))

;; "dynamic_invariant"
(define-fun dynamic_invariant ((temp___expr_322 us_rep) (temp___is_init_318 Bool) (temp___skip_constant_319 Bool) (temp___do_toplevel_320 Bool) (temp___do_typ_inv_321 Bool)) Bool
  (has_bounds
    (rec__ada___sparknacl__core__chacha20_key__f
      (us_split_fields1 temp___expr_322))
    0
    31))

(declare-sort u32 0)

;; "to_rep"
(declare-fun to_rep1 (u32) (_ BitVec 32))

;; "of_rep"
(declare-fun of_rep1 ((_ BitVec 32)) u32)

;; "inversion_axiom"
(assert
  (forall ((x u32)) (! (= (of_rep1 (to_rep1 x)) x) :pattern ((to_rep1 x)) )))

;; "range_axiom"
(assert true)

;; "coerce_axiom"
(assert
  (forall ((x (_ BitVec 32)))
    (! (= (to_rep1 (of_rep1 x)) x) :pattern ((to_rep1 (of_rep1 x))) )))

(declare-sort map2 0)

;; "has_bounds"
(declare-fun has_bounds1 (map2
  Int
  Int) Bool)

(declare-datatypes ((us_split_fields2 0))
  (((us_split_fieldsqtmk1
    (rec__ada___sparknacl__core__chacha20_context__f map2)))))

(declare-datatypes ((us_rep1 0))
  (((us_repqtmk1 (us_split_fields3 us_split_fields2)))))

;; "dynamic_invariant"
(define-fun dynamic_invariant1 ((temp___expr_371 us_rep1) (temp___is_init_367 Bool) (temp___skip_constant_368 Bool) (temp___do_toplevel_369 Bool) (temp___do_typ_inv_370 Bool)) Bool
  (has_bounds1
    (rec__ada___sparknacl__core__chacha20_context__f
      (us_split_fields3 temp___expr_371))
    0
    15))

(declare-const k us_rep)

(declare-const n map1)

;; "ld32"
(declare-fun ld32 (map1) (_ BitVec 32))

;; "ld32__function_guard"
(declare-fun ld32__function_guard ((_ BitVec 32)
  map1) Bool)

(declare-const sigma map1)

;; "sparknacl__sigma__aggregate_def"
(declare-fun sparknacl__sigma__aggregate_def ((_ BitVec 8)
  (_ BitVec 8)
  (_ BitVec 8)
  (_ BitVec 8)
  (_ BitVec 8)
  (_ BitVec 8)
  (_ BitVec 8)
  (_ BitVec 8)
  (_ BitVec 8)
  (_ BitVec 8)
  (_ BitVec 8)
  (_ BitVec 8)
  (_ BitVec 8)
  (_ BitVec 8)
  (_ BitVec 8)
  (_ BitVec 8)) map1)

;; "sigma__def_axiom"
(assert
  (= sigma (let ((temp___204qtunused (sparknacl__sigma__aggregate_def
                                       #x65
                                       #x78
                                       #x70
                                       #x61
                                       #x6E
                                       #x64
                                       #x20
                                       #x33
                                       #x32
                                       #x2D
                                       #x62
                                       #x79
                                       #x74
                                       #x65
                                       #x20
                                       #x6B)))
             (sparknacl__sigma__aggregate_def
               #x65
               #x78
               #x70
               #x61
               #x6E
               #x64
               #x20
               #x33
               #x32
               #x2D
               #x62
               #x79
               #x74
               #x65
               #x20
               #x6B))))

;; "def_axiom"
(assert
  (forall ((temp___185 (_ BitVec 8)) (temp___186 (_ BitVec 8)) (temp___187 (_ BitVec 8)) (temp___188 (_ BitVec 8)) (temp___189 (_ BitVec 8)) (temp___190 (_ BitVec 8)) (temp___191 (_ BitVec 8)) (temp___192 (_ BitVec 8)) (temp___193 (_ BitVec 8)) (temp___194 (_ BitVec 8)) (temp___195 (_ BitVec 8)) (temp___196 (_ BitVec 8)) (temp___197 (_ BitVec 8)) (temp___198 (_ BitVec 8)) (temp___199 (_ BitVec 8)) (temp___200 (_ BitVec 8)))
    (let ((temp___201 (sparknacl__sigma__aggregate_def
                        temp___185
                        temp___186
                        temp___187
                        temp___188
                        temp___189
                        temp___190
                        temp___191
                        temp___192
                        temp___193
                        temp___194
                        temp___195
                        temp___196
                        temp___197
                        temp___198
                        temp___199
                        temp___200)))
      (and
        (and
          (and
            (= (to_rep (get temp___201 0)) temp___185)
            (= (to_rep (get temp___201 1)) temp___186))
          (and
            (and
              (and
                (and
                  (= (to_rep (get temp___201 2)) temp___187)
                  (= (to_rep (get temp___201 3)) temp___188))
                (and
                  (= (to_rep (get temp___201 4)) temp___189)
                  (= (to_rep (get temp___201 5)) temp___190)))
              (and
                (and
                  (= (to_rep (get temp___201 6)) temp___191)
                  (= (to_rep (get temp___201 7)) temp___192))
                (= (to_rep (get temp___201 8)) temp___193)))
            (and
              (and
                (and
                  (= (to_rep (get temp___201 9)) temp___194)
                  (= (to_rep (get temp___201 10)) temp___195))
                (and
                  (= (to_rep (get temp___201 11)) temp___196)
                  (= (to_rep (get temp___201 12)) temp___197)))
              (and
                (and
                  (= (to_rep (get temp___201 13)) temp___198)
                  (= (to_rep (get temp___201 14)) temp___199))
                (= (to_rep (get temp___201 15)) temp___200)))))
        (=>
          (and
            (and (and (<= 0 0) (<= 0 15)) (and (<= 0 1) (<= 1 15)))
            (and
              (and
                (and
                  (and (and (<= 0 2) (<= 2 15)) (and (<= 0 3) (<= 3 15)))
                  (and (and (<= 0 4) (<= 4 15)) (and (<= 0 5) (<= 5 15))))
                (and
                  (and (and (<= 0 6) (<= 6 15)) (and (<= 0 7) (<= 7 15)))
                  (and (<= 0 8) (<= 8 15))))
              (and
                (and
                  (and (and (<= 0 9) (<= 9 15)) (and (<= 0 10) (<= 10 15)))
                  (and (and (<= 0 11) (<= 11 15)) (and (<= 0 12) (<= 12 15))))
                (and
                  (and (and (<= 0 13) (<= 13 15)) (and (<= 0 14) (<= 14 15)))
                  (and (<= 0 15) (<= 15 15))))))
          (has_bounds temp___201 0 15))))))

;; Goal "def'vc"
;; File "sparknacl-core.ads", line 77, characters 0-0
(assert
  (not
  (forall ((context__split_fields map2) (counter_bytes map1))
    (=>
      (has_bounds sigma 0 15)
      (forall ((temp___1139 map1))
        (=>
          (and
            (and
              (and
                (and
                  (= (to_rep (get temp___1139 0)) #x65)
                  (= (to_rep (get temp___1139 1)) #x78))
                (and
                  (and
                    (and
                      (and
                        (= (to_rep (get temp___1139 2)) #x70)
                        (= (to_rep (get temp___1139 3)) #x61))
                      (and
                        (= (to_rep (get temp___1139 4)) #x6E)
                        (= (to_rep (get temp___1139 5)) #x64)))
                    (and
                      (and
                        (= (to_rep (get temp___1139 6)) #x20)
                        (= (to_rep (get temp___1139 7)) #x33))
                      (= (to_rep (get temp___1139 8)) #x32)))
                  (and
                    (and
                      (and
                        (= (to_rep (get temp___1139 9)) #x2D)
                        (= (to_rep (get temp___1139 10)) #x62))
                      (and
                        (= (to_rep (get temp___1139 11)) #x79)
                        (= (to_rep (get temp___1139 12)) #x74)))
                    (and
                      (and
                        (= (to_rep (get temp___1139 13)) #x65)
                        (= (to_rep (get temp___1139 14)) #x20))
                      (= (to_rep (get temp___1139 15)) #x6B)))))
              (has_bounds temp___1139 0 15))
            (= temp___1139 (sparknacl__sigma__aggregate_def
                             #x65
                             #x78
                             #x70
                             #x61
                             #x6E
                             #x64
                             #x20
                             #x33
                             #x32
                             #x2D
                             #x62
                             #x79
                             #x74
                             #x65
                             #x20
                             #x6B)))
          (=>
            (= temp___1139 sigma)
            (=>
              (dynamic_invariant1
                (us_repqtmk1 (us_split_fieldsqtmk1 context__split_fields))
                false
                false
                true
                true)
              (=>
                (dynamic_invariant k true false true true)
                (=>
                  (has_bounds n 0 11)
                  (=>
                    (has_bounds counter_bytes 0 3)
                    (forall ((counter_bytes1 map1))
                      (=>
                        (has_bounds counter_bytes1 0 3)
                        (=>
                          (=>
                            (<= 8 11)
                            (and
                              (and (<= 0 8) (<= 8 11))
                              (and (<= 0 11) (<= 11 11))))
                          (let ((temp___1110 (slide (slice n 8 11) 8 0)))
                            (=>
                              (ld32__function_guard
                                (ld32 temp___1110)
                                temp___1110)
                              (=>
                                (=>
                                  (<= 4 7)
                                  (and
                                    (and (<= 0 4) (<= 4 11))
                                    (and (<= 0 7) (<= 7 11))))
                                (let ((temp___1106 (slide (slice n 4 7) 4 0)))
                                  (=>
                                    (ld32__function_guard
                                      (ld32 temp___1106)
                                      temp___1106)
                                    (=>
                                      (=>
                                        (<= 0 3)
                                        (and
                                          (and (<= 0 0) (<= 0 11))
                                          (and (<= 0 3) (<= 3 11))))
                                      (let ((temp___1101 (slice n 0 3)))
                                        (=>
                                          (ld32__function_guard
                                            (ld32 temp___1101)
                                            temp___1101)
                                          (=>
                                            (=>
                                              (<= 0 3)
                                              (and
                                                (and (<= 0 0) (<= 0 3))
                                                (and (<= 0 3) (<= 3 3))))
                                            (let ((temp___1097 (slice
                                                                 counter_bytes1
                                                                 0
                                                                 3)))
                                              (=>
                                                (ld32__function_guard
                                                  (ld32 temp___1097)
                                                  temp___1097)
                                                (=>
                                                  (=>
                                                    (<= 28 31)
                                                    (and
                                                      (and
                                                        (<= 0 28)
                                                        (<= 28 31))
                                                      (and
                                                        (<= 0 31)
                                                        (<= 31 31))))
                                                  (let ((temp___1094 
                                                    (slide
                                                      (slice
                                                        (rec__ada___sparknacl__core__chacha20_key__f
                                                          (us_split_fields1
                                                            k))
                                                        28
                                                        31)
                                                      28
                                                      0)))
                                                    (=>
                                                      (ld32__function_guard
                                                        (ld32 temp___1094)
                                                        temp___1094)
                                                      (=>
                                                        (=>
                                                          (<= 24 27)
                                                          (and
                                                            (and
                                                              (<= 0 24)
                                                              (<= 24 31))
                                                            (and
                                                              (<= 0 27)
                                                              (<= 27 31))))
                                                        (let ((temp___1089 
                                                          (slide
                                                            (slice
                                                              (rec__ada___sparknacl__core__chacha20_key__f
                                                                (us_split_fields1
                                                                  k))
                                                              24
                                                              27)
                                                            24
                                                            0)))
                                                          (=>
                                                            (ld32__function_guard
                                                              (ld32
                                                                temp___1089)
                                                              temp___1089)
                                                            (=>
                                                              (=>
                                                                (<= 20 23)
                                                                (and
                                                                  (and
                                                                    (<= 0 20)
                                                                    (<= 20 31))
                                                                  (and
                                                                    (<= 0 23)
                                                                    (<= 23 31))))
                                                              (let ((temp___1084 
                                                                (slide
                                                                  (slice
                                                                    (rec__ada___sparknacl__core__chacha20_key__f
                                                                    (us_split_fields1
                                                                    k))
                                                                    20
                                                                    23)
                                                                  20
                                                                  0)))
                                                                (=>
                                                                  (ld32__function_guard
                                                                    (ld32
                                                                    temp___1084)
                                                                    temp___1084)
                                                                  (=>
                                                                    (=>
                                                                    (<= 16 19)
                                                                    (and
                                                                    (and
                                                                    (<= 0 16)
                                                                    (<= 16 31))
                                                                    (and
                                                                    (<= 0 19)
                                                                    (<= 19 31))))
                                                                    (let ((temp___1079 
                                                                    (slide
                                                                    (slice
                                                                    (rec__ada___sparknacl__core__chacha20_key__f
                                                                    (us_split_fields1
                                                                    k))
                                                                    16
                                                                    19)
                                                                    16
                                                                    0)))
                                                                    (=>
                                                                    (ld32__function_guard
                                                                    (ld32
                                                                    temp___1079)
                                                                    temp___1079)
                                                                    (=>
                                                                    (=>
                                                                    (<= 12 15)
                                                                    (and
                                                                    (and
                                                                    (<= 0 12)
                                                                    (<= 12 31))
                                                                    (and
                                                                    (<= 0 15)
                                                                    (<= 15 31))))
                                                                    (let ((temp___1074 
                                                                    (slide
                                                                    (slice
                                                                    (rec__ada___sparknacl__core__chacha20_key__f
                                                                    (us_split_fields1
                                                                    k))
                                                                    12
                                                                    15)
                                                                    12
                                                                    0)))
                                                                    (=>
                                                                    (ld32__function_guard
                                                                    (ld32
                                                                    temp___1074)
                                                                    temp___1074)
                                                                    (=>
                                                                    (=>
                                                                    (<= 8 11)
                                                                    (and
                                                                    (and
                                                                    (<= 0 8)
                                                                    (<= 8 31))
                                                                    (and
                                                                    (<= 0 11)
                                                                    (<= 11 31))))
                                                                    (let ((temp___1069 
                                                                    (slide
                                                                    (slice
                                                                    (rec__ada___sparknacl__core__chacha20_key__f
                                                                    (us_split_fields1
                                                                    k))
                                                                    8
                                                                    11)
                                                                    8
                                                                    0)))
                                                                    (=>
                                                                    (ld32__function_guard
                                                                    (ld32
                                                                    temp___1069)
                                                                    temp___1069)
                                                                    (=>
                                                                    (=>
                                                                    (<= 4 7)
                                                                    (and
                                                                    (and
                                                                    (<= 0 4)
                                                                    (<= 4 31))
                                                                    (and
                                                                    (<= 0 7)
                                                                    (<= 7 31))))
                                                                    (let ((temp___1064 
                                                                    (slide
                                                                    (slice
                                                                    (rec__ada___sparknacl__core__chacha20_key__f
                                                                    (us_split_fields1
                                                                    k))
                                                                    4
                                                                    7)
                                                                    4
                                                                    0)))
                                                                    (=>
                                                                    (ld32__function_guard
                                                                    (ld32
                                                                    temp___1064)
                                                                    temp___1064)
                                                                    (=>
                                                                    (=>
                                                                    (<= 0 3)
                                                                    (and
                                                                    (and
                                                                    (<= 0 0)
                                                                    (<= 0 31))
                                                                    (and
                                                                    (<= 0 3)
                                                                    (<= 3 31))))
                                                                    (let ((temp___1058 
                                                                    (slice
                                                                    (rec__ada___sparknacl__core__chacha20_key__f
                                                                    (us_split_fields1
                                                                    k))
                                                                    0
                                                                    3)))
                                                                    (=>
                                                                    (ld32__function_guard
                                                                    (ld32
                                                                    temp___1058)
                                                                    temp___1058)
                                                                    (=>
                                                                    (=>
                                                                    (<= 12 15)
                                                                    (and
                                                                    (and
                                                                    (<= 0 12)
                                                                    (<= 12 15))
                                                                    (and
                                                                    (<= 0 15)
                                                                    (<= 15 15))))
                                                                    (let ((temp___1054 
                                                                    (slide
                                                                    (slice
                                                                    sigma
                                                                    12
                                                                    15)
                                                                    12
                                                                    0)))
                                                                    (=>
                                                                    (ld32__function_guard
                                                                    (ld32
                                                                    temp___1054)
                                                                    temp___1054)
                                                                    (=>
                                                                    (=>
                                                                    (<= 8 11)
                                                                    (and
                                                                    (and
                                                                    (<= 0 8)
                                                                    (<= 8 15))
                                                                    (and
                                                                    (<= 0 11)
                                                                    (<= 11 15))))
                                                                    (let ((temp___1050 
                                                                    (slide
                                                                    (slice
                                                                    sigma
                                                                    8
                                                                    11)
                                                                    8
                                                                    0)))
                                                                    (=>
                                                                    (ld32__function_guard
                                                                    (ld32
                                                                    temp___1050)
                                                                    temp___1050)
                                                                    (=>
                                                                    (<= 4 7)
                                                                    (<= 7 15)))))))))))))))))))))))))))))))))))))))))))))))))))))))))

(check-sat)
